79
28
0 29 30 31 32 33 34 35 38 41 42 45 46 50 51 52 53 54 56 57 58 59 61 64 65 68 69 70 72 73 75 76 78
1 30 31 33 34 36 37 39 41 42 44 50 54 55 56 58 59 61 63 65 66 68 71 72 73 74 75 76
2 30 31 33 34 38 42 46 48 49 50 51 52 54 55 56 58 59 61 67 68 69 71 73 75 78
3 30 31 32 34 42 43 47 48 49 50 52 53 54 55 56 59 61 62 63 65 68 69 72 75 77
4 28 31 32 33 34 36 38 41 42 46 47 48 49 50 51 52 53 54 55 58 59 61 64 65 68 69 71 72 74 75
5 28 30 31 32 34 38 39 40 42 47 52 53 54 55 56 57 58 59 63 65 68 71 75 78
6 30 32 33 36 39 43 49 50 53 54 56 58 59 62 63 64 65 66 68 69 70 72 78
7 28 30 31 33 36 41 42 50 52 53 54 55 58 59 60 61 70 71 72 73 75 76 78
8 31 32 34 38 41 42 49 50 52 53 55 58 59 60 62 63 65 68 69 70 71 72 73 75 77 78
9 28 31 33 34 38 39 41 46 48 49 50 51 52 53 55 56 57 65 66 68 71 73 74 75 78
10 28 29 30 32 33 34 38 42 44 48 49 52 54 55 56 59 61 63 64 65 66 71 72 75 76 78
11 31 34 35 36 39 42 44 48 50 52 53 55 56 59 62 63 64 66 68 74 77 78
12 31 33 36 37 39 42 44 46 48 49 50 54 55 62 63 68 70 71 73
13 30 33 34 36 39 43 44 46 48 50 55 56 58 61 67 68 70 74 77 78
14 32 34 38 39 41 42 43 44 49 53 59 69 70 73 75 76
15 29 30 32 36 43 44 47 52 54 55 56 58 59 62 65 68 69 71 72 75 76 77
16 31 32 33 34 35 36 39 40 41 45 47 48 49 50 51 56 61 77 78
17 30 32 36 38 43 44 46 49 52 57 59 63 64 66 69 70 71 72 73 78
18 28 30 39 41 44 47 52 55 57 58 59 61 63 65 66 68 71 72 74 78
19 28 30 33 38 39 46 47 48 50 52 54 60 61 63 64 68 76
20 28 30 32 35 44 46 47 49 54 55 59 60 65 68 71 74 77
21 42 43 46 57 59 61 62 63 66 73
22 31 37 38 51 56 57 58 62 68 69 77
23 33 52 64
24 48 51 54 60 64 65 66 67
25 31 34 38 69 70
26 68
27
